% 00000
% 01000
% 01000
% 01000
% 01110
% 00000

% 00000 00000 00000 00000
% 01000 01110 01110 00100
% 01000 01010 01010 00100
% 01000 01010 01110 00100
% 01110 01110 01001 00100
% 00000 00000 00000 00000

n = 24;
m = 12;
end_grid=[|
 0, 0, 0, 0, 0, 0, 0, 0, 0, 0, 0, 0|
 0, 0, 0, 0, 0, 0, 0, 0, 0, 0, 0, 0|
 0, 0, 0, 0, 0, 0, 0, 0, 0, 0, 0, 0|
 0, 0, 0, 0, 0, 0, 0, 0, 0, 0, 0, 0|
 0, 0, 0, 0, 0, 0, 0, 0, 0, 0, 0, 0|
 0, 1, 1, 0, 0, 0, 0, 0, 0, 0, 0, 0|
 0, 1, 1, 0, 0, 0, 0, 0, 0, 0, 0, 0|
 0, 0, 0, 0, 0, 0, 0, 0, 0, 0, 0, 0|
 0, 0, 0, 0, 0, 0, 0, 0, 0, 0, 0, 0|
 0, 1, 1, 0, 0, 0, 0, 0, 0, 0, 0, 0|
 0, 1, 1, 0, 0, 0, 0, 0, 0, 0, 0, 0|
 0, 0, 0, 0, 0, 0, 0, 0, 0, 0, 0, 0|
 0, 0, 0, 0, 0, 0, 0, 0, 0, 0, 0, 0|
 0, 1, 1, 0, 0, 0, 0, 0, 0, 0, 0, 0|
 0, 1, 1, 0, 0, 0, 0, 0, 0, 0, 0, 0|
 0, 0, 0, 0, 0, 0, 0, 0, 0, 0, 0, 0|
 0, 0, 0, 0, 0, 0, 0, 0, 0, 0, 0, 0|
 0, 1, 1, 0, 0, 1, 1, 0, 0, 1, 1, 0|
 0, 1, 1, 0, 0, 1, 1, 0, 0, 1, 1, 0|
 0, 0, 0, 0, 0, 0, 0, 0, 0, 0, 0, 0|
 0, 0, 0, 0, 0, 0, 0, 0, 0, 0, 0, 0|
 0, 0, 0, 0, 0, 0, 0, 0, 0, 0, 0, 0|
 0, 0, 0, 0, 0, 0, 0, 0, 0, 0, 0, 0|
 0, 0, 0, 0, 0, 0, 0, 0, 0, 0, 0, 0|];


